n_machines = 5;
n_resources = 7;
n_jobs = 82;
horizon = 4180;
LB = 1016;
n_jobs_per_resource = [16, 7, 18, 14, 7, 15, 5];
duration = [75, 21, 55, 24, 61, 96, 82, 2, 33, 36, 33, 91, 35, 7, 13, 21, 74, 34, 75, 70, 31, 41, 93, 75, 27, 48, 90, 57, 66, 25, 58, 34, 50, 69, 84, 83, 42, 66, 49, 5, 88, 15, 17, 79, 81, 64, 32, 49, 68, 62, 60, 66, 8, 39, 67, 5, 48, 71, 93, 75, 42, 90, 2, 22, 65, 78, 21, 41, 1, 89, 81, 35, 75, 56, 10, 71, 57, 10, 91, 58, 11, 56]